PARAMETER_FILE = even/even_uncomplete_graph_new/nei/par/random165.par
PROBLEM_FILE = even/even_uncomplete_graph_new/nei/mat/random165.tsp
Successes/Runs = 0/10
Cost.min = 954, Cost.avg = 954.00, Cost.max = 954
Gap.min = 0.0000%, Gap.avg = 0.0000%, Gap.max = 0.0000%
Trials.min = 1000, Trials.avg = 1000.0, Trials.max = 1000
Time.min = 0.36 sec., Time.avg = 0.76 sec., Time.max = 1.24 sec.
Time.total = 7.79 sec.
请按任意键继续. . . 
